902 10
3 3 3 3 3 3 3 3 3 3
0  0 0 0 0 0 0 0 0 0 0  90 2 12 22 32 42 52 62 72 82 92 102 112 122 132 142 152 162 172 182 192 202 212 222 232 242 252 262 272 282 292 302 312 322 332 342 352 362 372 382 392 402 412 422 432 442 452 462 472 482 492 502 512 522 532 542 552 562 572 582 592 602 612 622 632 642 652 662 672 682 692 702 712 722 732 742 752 762 772 782 792 802 812 822 832 842 852 862 872 882 892
51  0 0 1 0 0 0 0 0 0 0  1 3
59  0 0 0 0 0 0 0 1 0 0  1 4
35  0 1 0 0 0 0 0 0 0 0  1 5
73  0 0 0 0 0 1 0 0 0 0  1 6
65  0 0 0 0 0 0 0 0 0 1  1 7
27  1 0 0 0 0 0 0 0 0 0  1 8
13  0 0 0 0 0 0 1 0 0 0  1 9
81  0 0 0 1 0 0 0 0 0 0  1 10
32  0 0 0 0 0 0 0 0 1 0  1 11
74  0 0 0 0 1 0 0 0 0 0  1 902
64  0 0 0 0 1 0 0 0 0 0  1 13
33  0 0 0 0 0 0 0 1 0 0  1 14
75  0 0 0 0 0 1 0 0 0 0  1 15
33  0 0 1 0 0 0 0 0 0 0  1 16
10  0 0 0 0 0 0 0 0 1 0  1 17
28  1 0 0 0 0 0 0 0 0 0  1 18
38  0 0 0 1 0 0 0 0 0 0  1 19
53  0 0 0 0 0 0 1 0 0 0  1 20
49  0 0 0 0 0 0 0 0 0 1  1 21
55  0 1 0 0 0 0 0 0 0 0  1 902
83  0 0 0 0 0 0 1 0 0 0  1 23
23  0 1 0 0 0 0 0 0 0 0  1 24
72  0 0 1 0 0 0 0 0 0 0  1 25
7  0 0 0 1 0 0 0 0 0 0  1 26
72  0 0 0 0 0 0 0 0 0 1  1 27
6  1 0 0 0 0 0 0 0 0 0  1 28
39  0 0 0 0 1 0 0 0 0 0  1 29
52  0 0 0 0 0 1 0 0 0 0  1 30
90  0 0 0 0 0 0 0 0 1 0  1 31
21  0 0 0 0 0 0 0 1 0 0  1 902
82  0 0 0 1 0 0 0 0 0 0  1 33
23  0 1 0 0 0 0 0 0 0 0  1 34
93  0 0 1 0 0 0 0 0 0 0  1 35
78  0 0 0 0 1 0 0 0 0 0  1 36
88  0 0 0 0 0 0 1 0 0 0  1 37
53  0 0 0 0 0 0 0 1 0 0  1 38
28  0 0 0 0 0 0 0 0 0 1  1 39
65  0 0 0 0 0 0 0 0 1 0  1 40
21  0 0 0 0 0 1 0 0 0 0  1 41
61  1 0 0 0 0 0 0 0 0 0  1 902
41  0 0 0 0 1 0 0 0 0 0  1 43
12  0 0 0 0 0 0 1 0 0 0  1 44
12  0 0 0 0 0 0 0 0 0 1  1 45
77  0 0 0 1 0 0 0 0 0 0  1 46
70  0 1 0 0 0 0 0 0 0 0  1 47
24  0 0 0 0 0 0 0 1 0 0  1 48
81  1 0 0 0 0 0 0 0 0 0  1 49
73  0 0 0 0 0 1 0 0 0 0  1 50
62  0 0 1 0 0 0 0 0 0 0  1 51
6  0 0 0 0 0 0 0 0 1 0  1 902
98  0 0 0 0 1 0 0 0 0 0  1 53
28  0 0 0 1 0 0 0 0 0 0  1 54
42  0 0 0 0 0 0 1 0 0 0  1 55
72  0 0 0 0 0 0 0 0 0 1  1 56
15  1 0 0 0 0 0 0 0 0 0  1 57
15  0 0 0 0 0 0 0 0 1 0  1 58
94  0 0 0 0 0 1 0 0 0 0  1 59
33  0 0 1 0 0 0 0 0 0 0  1 60
51  0 1 0 0 0 0 0 0 0 0  1 61
99  0 0 0 0 0 0 0 1 0 0  1 902
32  1 0 0 0 0 0 0 0 0 0  1 63
22  0 0 0 0 0 0 0 0 1 0  1 64
96  0 0 0 0 0 0 0 0 0 1  1 65
15  0 0 0 0 1 0 0 0 0 0  1 66
78  0 0 0 0 0 0 1 0 0 0  1 67
31  0 0 0 1 0 0 0 0 0 0  1 68
7  0 0 0 0 0 1 0 0 0 0  1 69
94  0 1 0 0 0 0 0 0 0 0  1 70
23  0 0 1 0 0 0 0 0 0 0  1 71
86  0 0 0 0 0 0 0 1 0 0  1 902
93  0 0 0 0 0 0 0 1 0 0  1 73
97  0 0 1 0 0 0 0 0 0 0  1 74
43  0 0 0 1 0 0 0 0 0 0  1 75
73  0 0 0 0 0 1 0 0 0 0  1 76
24  1 0 0 0 0 0 0 0 0 0  1 77
68  0 0 0 0 0 0 0 0 1 0  1 78
88  0 0 0 0 0 0 0 0 0 1  1 79
42  0 1 0 0 0 0 0 0 0 0  1 80
35  0 0 0 0 1 0 0 0 0 0  1 81
72  0 0 0 0 0 0 1 0 0 0  1 902
14  0 0 1 0 0 0 0 0 0 0  1 83
44  1 0 0 0 0 0 0 0 0 0  1 84
13  0 0 0 0 0 0 0 0 1 0  1 85
67  0 0 0 0 0 1 0 0 0 0  1 86
63  0 1 0 0 0 0 0 0 0 0  1 87
49  0 0 0 1 0 0 0 0 0 0  1 88
5  0 0 0 0 0 0 0 1 0 0  1 89
17  0 0 0 0 1 0 0 0 0 0  1 90
85  0 0 0 0 0 0 1 0 0 0  1 91
66  0 0 0 0 0 0 0 0 0 1  1 902
82  0 0 0 0 0 0 0 1 0 0  1 93
15  0 0 0 0 0 0 0 0 0 1  1 94
72  0 0 0 1 0 0 0 0 0 0  1 95
26  0 0 0 0 1 0 0 0 0 0  1 96
8  1 0 0 0 0 0 0 0 0 0  1 97
68  0 1 0 0 0 0 0 0 0 0  1 98
21  0 0 0 0 0 0 1 0 0 0  1 99
45  0 0 0 0 0 0 0 0 1 0  1 100
99  0 0 1 0 0 0 0 0 0 0  1 101
27  0 0 0 0 0 1 0 0 0 0  1 902
93  0 0 0 0 1 0 0 0 0 0  1 103
23  0 0 0 0 0 0 1 0 0 0  1 104
51  1 0 0 0 0 0 0 0 0 0  1 105
54  0 0 0 0 0 0 0 0 1 0  1 106
49  0 0 0 1 0 0 0 0 0 0  1 107
96  0 1 0 0 0 0 0 0 0 0  1 108
56  0 0 1 0 0 0 0 0 0 0  1 109
36  0 0 0 0 0 0 0 0 0 1  1 110
53  0 0 0 0 0 1 0 0 0 0  1 111
52  0 0 0 0 0 0 0 1 0 0  1 902
60  0 0 0 0 0 0 0 0 1 0  1 113
14  1 0 0 0 0 0 0 0 0 0  1 114
70  0 0 0 0 1 0 0 0 0 0  1 115
55  0 0 0 0 0 0 0 0 0 1  1 116
23  0 1 0 0 0 0 0 0 0 0  1 117
83  0 0 0 0 0 1 0 0 0 0  1 118
38  0 0 0 1 0 0 0 0 0 0  1 119
24  0 0 1 0 0 0 0 0 0 0  1 120
37  0 0 0 0 0 0 0 1 0 0  1 121
48  0 0 0 0 0 0 1 0 0 0  1 902
62  1 0 0 0 0 0 0 0 0 0  1 123
15  0 0 0 0 0 0 0 1 0 0  1 124
69  0 0 0 0 0 0 0 0 1 0  1 125
23  0 0 0 0 0 0 0 0 0 1  1 126
82  0 1 0 0 0 0 0 0 0 0  1 127
26  0 0 0 0 0 0 1 0 0 0  1 128
45  0 0 0 0 1 0 0 0 0 0  1 129
33  0 0 0 0 0 1 0 0 0 0  1 130
12  0 0 0 1 0 0 0 0 0 0  1 131
37  0 0 1 0 0 0 0 0 0 0  1 902
72  0 0 0 0 0 0 1 0 0 0  1 133
9  0 1 0 0 0 0 0 0 0 0  1 134
15  0 0 0 0 0 0 0 1 0 0  1 135
28  0 0 0 0 0 1 0 0 0 0  1 136
92  0 0 0 0 0 0 0 0 1 0  1 137
12  0 0 0 0 0 0 0 0 0 1  1 138
59  1 0 0 0 0 0 0 0 0 0  1 139
64  0 0 0 1 0 0 0 0 0 0  1 140
87  0 0 0 0 1 0 0 0 0 0  1 141
73  0 0 1 0 0 0 0 0 0 0  1 902
50  1 0 0 0 0 0 0 0 0 0  1 143
14  0 1 0 0 0 0 0 0 0 0  1 144
90  0 0 0 0 0 0 0 1 0 0  1 145
46  0 0 0 0 0 1 0 0 0 0  1 146
71  0 0 0 1 0 0 0 0 0 0  1 147
48  0 0 0 0 1 0 0 0 0 0  1 148
80  0 0 1 0 0 0 0 0 0 0  1 149
61  0 0 0 0 0 0 0 0 0 1  1 150
24  0 0 0 0 0 0 0 0 1 0  1 151
44  0 0 0 0 0 0 1 0 0 0  1 902
22  1 0 0 0 0 0 0 0 0 0  1 153
94  0 0 0 0 0 0 0 0 0 1  1 154
16  0 0 0 0 0 1 0 0 0 0  1 155
73  0 0 0 1 0 0 0 0 0 0  1 156
54  0 0 1 0 0 0 0 0 0 0  1 157
54  0 0 0 0 0 0 0 0 1 0  1 158
46  0 0 0 0 1 0 0 0 0 0  1 159
97  0 1 0 0 0 0 0 0 0 0  1 160
61  0 0 0 0 0 0 1 0 0 0  1 161
75  0 0 0 0 0 0 0 1 0 0  1 902
55  0 0 0 0 0 0 0 0 0 1  1 163
67  0 0 0 1 0 0 0 0 0 0  1 164
77  0 0 0 0 0 0 1 0 0 0  1 165
30  0 0 0 0 1 0 0 0 0 0  1 166
6  0 0 0 0 0 0 0 1 0 0  1 167
32  0 1 0 0 0 0 0 0 0 0  1 168
47  0 0 0 0 0 0 0 0 1 0  1 169
93  0 0 0 0 0 1 0 0 0 0  1 170
6  0 0 1 0 0 0 0 0 0 0  1 171
40  1 0 0 0 0 0 0 0 0 0  1 902
30  0 1 0 0 0 0 0 0 0 0  1 173
98  0 0 0 1 0 0 0 0 0 0  1 174
79  0 0 0 0 0 0 0 1 0 0  1 175
22  1 0 0 0 0 0 0 0 0 0  1 176
79  0 0 0 0 0 0 1 0 0 0  1 177
7  0 0 1 0 0 0 0 0 0 0  1 178
36  0 0 0 0 0 0 0 0 1 0  1 179
36  0 0 0 0 0 0 0 0 0 1  1 180
9  0 0 0 0 0 1 0 0 0 0  1 181
92  0 0 0 0 1 0 0 0 0 0  1 902
37  0 0 0 0 0 0 0 0 1 0  1 183
72  0 0 0 0 0 0 0 1 0 0  1 184
52  0 0 1 0 0 0 0 0 0 0  1 185
31  0 0 0 0 1 0 0 0 0 0  1 186
82  0 1 0 0 0 0 0 0 0 0  1 187
54  0 0 0 0 0 0 0 0 0 1  1 188
7  0 0 0 0 0 1 0 0 0 0  1 189
82  0 0 0 0 0 0 1 0 0 0  1 190
73  0 0 0 1 0 0 0 0 0 0  1 191
49  1 0 0 0 0 0 0 0 0 0  1 902
73  0 1 0 0 0 0 0 0 0 0  1 193
83  0 0 0 1 0 0 0 0 0 0  1 194
45  0 0 0 0 0 0 0 1 0 0  1 195
76  0 0 1 0 0 0 0 0 0 0  1 196
43  0 0 0 0 1 0 0 0 0 0  1 197
29  0 0 0 0 0 0 0 0 0 1  1 198
35  1 0 0 0 0 0 0 0 0 0  1 199
92  0 0 0 0 0 1 0 0 0 0  1 200
39  0 0 0 0 0 0 0 0 1 0  1 201
28  0 0 0 0 0 0 1 0 0 0  1 902
58  0 0 1 0 0 0 0 0 0 0  1 203
26  1 0 0 0 0 0 0 0 0 0  1 204
48  0 1 0 0 0 0 0 0 0 0  1 205
52  0 0 0 0 0 0 0 0 1 0  1 206
34  0 0 0 0 0 0 0 1 0 0  1 207
96  0 0 0 0 0 0 1 0 0 0  1 208
70  0 0 0 0 0 1 0 0 0 0  1 209
98  0 0 0 0 1 0 0 0 0 0  1 210
80  0 0 0 1 0 0 0 0 0 0  1 211
94  0 0 0 0 0 0 0 0 0 1  1 902
70  0 1 0 0 0 0 0 0 0 0  1 213
23  0 0 0 0 0 0 0 0 1 0  1 214
26  0 0 0 0 0 1 0 0 0 0  1 215
14  0 0 0 0 1 0 0 0 0 0  1 216
90  0 0 0 0 0 0 1 0 0 0  1 217
93  0 0 1 0 0 0 0 0 0 0  1 218
21  0 0 0 1 0 0 0 0 0 0  1 219
42  1 0 0 0 0 0 0 0 0 0  1 220
18  0 0 0 0 0 0 0 1 0 0  1 221
36  0 0 0 0 0 0 0 0 0 1  1 902
28  0 0 0 0 1 0 0 0 0 0  1 223
76  0 0 0 0 0 0 1 0 0 0  1 224
25  0 0 0 0 0 0 0 1 0 0  1 225
17  1 0 0 0 0 0 0 0 0 0  1 226
84  0 1 0 0 0 0 0 0 0 0  1 227
67  0 0 1 0 0 0 0 0 0 0  1 228
87  0 0 0 0 0 0 0 0 1 0  1 229
43  0 0 0 1 0 0 0 0 0 0  1 230
88  0 0 0 0 0 0 0 0 0 1  1 231
84  0 0 0 0 0 1 0 0 0 0  1 902
30  0 0 0 0 0 0 0 1 0 0  1 233
91  0 0 0 1 0 0 0 0 0 0  1 234
52  0 0 0 0 0 0 0 0 1 0  1 235
80  0 0 0 0 1 0 0 0 0 0  1 236
21  1 0 0 0 0 0 0 0 0 0  1 237
8  0 0 0 0 0 1 0 0 0 0  1 238
37  0 0 0 0 0 0 0 0 0 1  1 239
15  0 0 1 0 0 0 0 0 0 0  1 240
12  0 0 0 0 0 0 1 0 0 0  1 241
92  0 1 0 0 0 0 0 0 0 0  1 902
28  0 1 0 0 0 0 0 0 0 0  1 243
7  0 0 0 0 1 0 0 0 0 0  1 244
46  0 0 0 0 0 0 0 1 0 0  1 245
92  0 0 0 0 0 0 1 0 0 0  1 246
77  0 0 1 0 0 0 0 0 0 0  1 247
15  0 0 0 1 0 0 0 0 0 0  1 248
69  0 0 0 0 0 0 0 0 0 1  1 249
54  0 0 0 0 0 0 0 0 1 0  1 250
47  1 0 0 0 0 0 0 0 0 0  1 251
39  0 0 0 0 0 1 0 0 0 0  1 902
50  0 0 0 0 0 0 0 0 0 1  1 253
44  0 0 0 0 0 1 0 0 0 0  1 254
64  0 0 1 0 0 0 0 0 0 0  1 255
38  0 0 0 0 0 0 0 0 1 0  1 256
93  0 0 0 0 1 0 0 0 0 0  1 257
33  0 0 0 0 0 0 1 0 0 0  1 258
75  0 0 0 0 0 0 0 1 0 0  1 259
41  1 0 0 0 0 0 0 0 0 0  1 260
24  0 1 0 0 0 0 0 0 0 0  1 261
5  0 0 0 1 0 0 0 0 0 0  1 902
94  0 0 0 0 0 0 0 1 0 0  1 263
17  1 0 0 0 0 0 0 0 0 0  1 264
87  0 0 0 0 0 0 1 0 0 0  1 265
21  0 0 1 0 0 0 0 0 0 0  1 266
92  0 0 0 0 0 0 0 0 1 0  1 267
28  0 0 0 0 0 0 0 0 0 1  1 268
61  0 1 0 0 0 0 0 0 0 0  1 269
63  0 0 0 0 1 0 0 0 0 0  1 270
34  0 0 0 1 0 0 0 0 0 0  1 271
77  0 0 0 0 0 1 0 0 0 0  1 902
72  0 0 0 1 0 0 0 0 0 0  1 273
98  0 0 0 0 0 0 0 0 1 0  1 274
5  0 0 0 0 0 0 0 0 0 1  1 275
28  0 0 0 0 1 0 0 0 0 0  1 276
9  0 0 1 0 0 0 0 0 0 0  1 277
95  0 0 0 0 0 1 0 0 0 0  1 278
64  0 0 0 0 0 0 1 0 0 0  1 279
43  0 1 0 0 0 0 0 0 0 0  1 280
50  1 0 0 0 0 0 0 0 0 0  1 281
96  0 0 0 0 0 0 0 1 0 0  1 902
85  1 0 0 0 0 0 0 0 0 0  1 283
85  0 0 1 0 0 0 0 0 0 0  1 284
39  0 0 0 0 0 0 0 0 1 0  1 285
98  0 1 0 0 0 0 0 0 0 0  1 286
24  0 0 0 0 0 0 0 1 0 0  1 287
71  0 0 0 1 0 0 0 0 0 0  1 288
60  0 0 0 0 0 1 0 0 0 0  1 289
55  0 0 0 0 1 0 0 0 0 0  1 290
22  0 0 0 0 0 0 0 0 0 1  1 291
35  0 0 0 0 0 0 1 0 0 0  1 902
78  0 0 0 1 0 0 0 0 0 0  1 293
49  0 0 0 0 0 0 1 0 0 0  1 294
46  0 0 1 0 0 0 0 0 0 0  1 295
11  0 1 0 0 0 0 0 0 0 0  1 296
90  1 0 0 0 0 0 0 0 0 0  1 297
20  0 0 0 0 0 1 0 0 0 0  1 298
34  0 0 0 0 0 0 0 0 0 1  1 299
6  0 0 0 0 0 0 0 1 0 0  1 300
70  0 0 0 0 1 0 0 0 0 0  1 301
74  0 0 0 0 0 0 0 0 1 0  1 902
51  0 0 1 0 0 0 0 0 0 0  1 303
59  0 0 0 0 0 0 0 1 0 0  1 304
35  0 1 0 0 0 0 0 0 0 0  1 305
73  0 0 0 0 0 1 0 0 0 0  1 306
65  0 0 0 0 0 0 0 0 0 1  1 307
27  1 0 0 0 0 0 0 0 0 0  1 308
13  0 0 0 0 0 0 1 0 0 0  1 309
81  0 0 0 1 0 0 0 0 0 0  1 310
32  0 0 0 0 0 0 0 0 1 0  1 311
74  0 0 0 0 1 0 0 0 0 0  1 902
64  0 0 0 0 1 0 0 0 0 0  1 313
33  0 0 0 0 0 0 0 1 0 0  1 314
75  0 0 0 0 0 1 0 0 0 0  1 315
33  0 0 1 0 0 0 0 0 0 0  1 316
10  0 0 0 0 0 0 0 0 1 0  1 317
28  1 0 0 0 0 0 0 0 0 0  1 318
38  0 0 0 1 0 0 0 0 0 0  1 319
53  0 0 0 0 0 0 1 0 0 0  1 320
49  0 0 0 0 0 0 0 0 0 1  1 321
55  0 1 0 0 0 0 0 0 0 0  1 902
83  0 0 0 0 0 0 1 0 0 0  1 323
23  0 1 0 0 0 0 0 0 0 0  1 324
72  0 0 1 0 0 0 0 0 0 0  1 325
7  0 0 0 1 0 0 0 0 0 0  1 326
72  0 0 0 0 0 0 0 0 0 1  1 327
6  1 0 0 0 0 0 0 0 0 0  1 328
39  0 0 0 0 1 0 0 0 0 0  1 329
52  0 0 0 0 0 1 0 0 0 0  1 330
90  0 0 0 0 0 0 0 0 1 0  1 331
21  0 0 0 0 0 0 0 1 0 0  1 902
82  0 0 0 1 0 0 0 0 0 0  1 333
23  0 1 0 0 0 0 0 0 0 0  1 334
93  0 0 1 0 0 0 0 0 0 0  1 335
78  0 0 0 0 1 0 0 0 0 0  1 336
88  0 0 0 0 0 0 1 0 0 0  1 337
53  0 0 0 0 0 0 0 1 0 0  1 338
28  0 0 0 0 0 0 0 0 0 1  1 339
65  0 0 0 0 0 0 0 0 1 0  1 340
21  0 0 0 0 0 1 0 0 0 0  1 341
61  1 0 0 0 0 0 0 0 0 0  1 902
41  0 0 0 0 1 0 0 0 0 0  1 343
12  0 0 0 0 0 0 1 0 0 0  1 344
12  0 0 0 0 0 0 0 0 0 1  1 345
77  0 0 0 1 0 0 0 0 0 0  1 346
70  0 1 0 0 0 0 0 0 0 0  1 347
24  0 0 0 0 0 0 0 1 0 0  1 348
81  1 0 0 0 0 0 0 0 0 0  1 349
73  0 0 0 0 0 1 0 0 0 0  1 350
62  0 0 1 0 0 0 0 0 0 0  1 351
6  0 0 0 0 0 0 0 0 1 0  1 902
98  0 0 0 0 1 0 0 0 0 0  1 353
28  0 0 0 1 0 0 0 0 0 0  1 354
42  0 0 0 0 0 0 1 0 0 0  1 355
72  0 0 0 0 0 0 0 0 0 1  1 356
15  1 0 0 0 0 0 0 0 0 0  1 357
15  0 0 0 0 0 0 0 0 1 0  1 358
94  0 0 0 0 0 1 0 0 0 0  1 359
33  0 0 1 0 0 0 0 0 0 0  1 360
51  0 1 0 0 0 0 0 0 0 0  1 361
99  0 0 0 0 0 0 0 1 0 0  1 902
32  1 0 0 0 0 0 0 0 0 0  1 363
22  0 0 0 0 0 0 0 0 1 0  1 364
96  0 0 0 0 0 0 0 0 0 1  1 365
15  0 0 0 0 1 0 0 0 0 0  1 366
78  0 0 0 0 0 0 1 0 0 0  1 367
31  0 0 0 1 0 0 0 0 0 0  1 368
7  0 0 0 0 0 1 0 0 0 0  1 369
94  0 1 0 0 0 0 0 0 0 0  1 370
23  0 0 1 0 0 0 0 0 0 0  1 371
86  0 0 0 0 0 0 0 1 0 0  1 902
93  0 0 0 0 0 0 0 1 0 0  1 373
97  0 0 1 0 0 0 0 0 0 0  1 374
43  0 0 0 1 0 0 0 0 0 0  1 375
73  0 0 0 0 0 1 0 0 0 0  1 376
24  1 0 0 0 0 0 0 0 0 0  1 377
68  0 0 0 0 0 0 0 0 1 0  1 378
88  0 0 0 0 0 0 0 0 0 1  1 379
42  0 1 0 0 0 0 0 0 0 0  1 380
35  0 0 0 0 1 0 0 0 0 0  1 381
72  0 0 0 0 0 0 1 0 0 0  1 902
14  0 0 1 0 0 0 0 0 0 0  1 383
44  1 0 0 0 0 0 0 0 0 0  1 384
13  0 0 0 0 0 0 0 0 1 0  1 385
67  0 0 0 0 0 1 0 0 0 0  1 386
63  0 1 0 0 0 0 0 0 0 0  1 387
49  0 0 0 1 0 0 0 0 0 0  1 388
5  0 0 0 0 0 0 0 1 0 0  1 389
17  0 0 0 0 1 0 0 0 0 0  1 390
85  0 0 0 0 0 0 1 0 0 0  1 391
66  0 0 0 0 0 0 0 0 0 1  1 902
82  0 0 0 0 0 0 0 1 0 0  1 393
15  0 0 0 0 0 0 0 0 0 1  1 394
72  0 0 0 1 0 0 0 0 0 0  1 395
26  0 0 0 0 1 0 0 0 0 0  1 396
8  1 0 0 0 0 0 0 0 0 0  1 397
68  0 1 0 0 0 0 0 0 0 0  1 398
21  0 0 0 0 0 0 1 0 0 0  1 399
45  0 0 0 0 0 0 0 0 1 0  1 400
99  0 0 1 0 0 0 0 0 0 0  1 401
27  0 0 0 0 0 1 0 0 0 0  1 902
93  0 0 0 0 1 0 0 0 0 0  1 403
23  0 0 0 0 0 0 1 0 0 0  1 404
51  1 0 0 0 0 0 0 0 0 0  1 405
54  0 0 0 0 0 0 0 0 1 0  1 406
49  0 0 0 1 0 0 0 0 0 0  1 407
96  0 1 0 0 0 0 0 0 0 0  1 408
56  0 0 1 0 0 0 0 0 0 0  1 409
36  0 0 0 0 0 0 0 0 0 1  1 410
53  0 0 0 0 0 1 0 0 0 0  1 411
52  0 0 0 0 0 0 0 1 0 0  1 902
60  0 0 0 0 0 0 0 0 1 0  1 413
14  1 0 0 0 0 0 0 0 0 0  1 414
70  0 0 0 0 1 0 0 0 0 0  1 415
55  0 0 0 0 0 0 0 0 0 1  1 416
23  0 1 0 0 0 0 0 0 0 0  1 417
83  0 0 0 0 0 1 0 0 0 0  1 418
38  0 0 0 1 0 0 0 0 0 0  1 419
24  0 0 1 0 0 0 0 0 0 0  1 420
37  0 0 0 0 0 0 0 1 0 0  1 421
48  0 0 0 0 0 0 1 0 0 0  1 902
62  1 0 0 0 0 0 0 0 0 0  1 423
15  0 0 0 0 0 0 0 1 0 0  1 424
69  0 0 0 0 0 0 0 0 1 0  1 425
23  0 0 0 0 0 0 0 0 0 1  1 426
82  0 1 0 0 0 0 0 0 0 0  1 427
26  0 0 0 0 0 0 1 0 0 0  1 428
45  0 0 0 0 1 0 0 0 0 0  1 429
33  0 0 0 0 0 1 0 0 0 0  1 430
12  0 0 0 1 0 0 0 0 0 0  1 431
37  0 0 1 0 0 0 0 0 0 0  1 902
72  0 0 0 0 0 0 1 0 0 0  1 433
9  0 1 0 0 0 0 0 0 0 0  1 434
15  0 0 0 0 0 0 0 1 0 0  1 435
28  0 0 0 0 0 1 0 0 0 0  1 436
92  0 0 0 0 0 0 0 0 1 0  1 437
12  0 0 0 0 0 0 0 0 0 1  1 438
59  1 0 0 0 0 0 0 0 0 0  1 439
64  0 0 0 1 0 0 0 0 0 0  1 440
87  0 0 0 0 1 0 0 0 0 0  1 441
73  0 0 1 0 0 0 0 0 0 0  1 902
50  1 0 0 0 0 0 0 0 0 0  1 443
14  0 1 0 0 0 0 0 0 0 0  1 444
90  0 0 0 0 0 0 0 1 0 0  1 445
46  0 0 0 0 0 1 0 0 0 0  1 446
71  0 0 0 1 0 0 0 0 0 0  1 447
48  0 0 0 0 1 0 0 0 0 0  1 448
80  0 0 1 0 0 0 0 0 0 0  1 449
61  0 0 0 0 0 0 0 0 0 1  1 450
24  0 0 0 0 0 0 0 0 1 0  1 451
44  0 0 0 0 0 0 1 0 0 0  1 902
22  1 0 0 0 0 0 0 0 0 0  1 453
94  0 0 0 0 0 0 0 0 0 1  1 454
16  0 0 0 0 0 1 0 0 0 0  1 455
73  0 0 0 1 0 0 0 0 0 0  1 456
54  0 0 1 0 0 0 0 0 0 0  1 457
54  0 0 0 0 0 0 0 0 1 0  1 458
46  0 0 0 0 1 0 0 0 0 0  1 459
97  0 1 0 0 0 0 0 0 0 0  1 460
61  0 0 0 0 0 0 1 0 0 0  1 461
75  0 0 0 0 0 0 0 1 0 0  1 902
55  0 0 0 0 0 0 0 0 0 1  1 463
67  0 0 0 1 0 0 0 0 0 0  1 464
77  0 0 0 0 0 0 1 0 0 0  1 465
30  0 0 0 0 1 0 0 0 0 0  1 466
6  0 0 0 0 0 0 0 1 0 0  1 467
32  0 1 0 0 0 0 0 0 0 0  1 468
47  0 0 0 0 0 0 0 0 1 0  1 469
93  0 0 0 0 0 1 0 0 0 0  1 470
6  0 0 1 0 0 0 0 0 0 0  1 471
40  1 0 0 0 0 0 0 0 0 0  1 902
30  0 1 0 0 0 0 0 0 0 0  1 473
98  0 0 0 1 0 0 0 0 0 0  1 474
79  0 0 0 0 0 0 0 1 0 0  1 475
22  1 0 0 0 0 0 0 0 0 0  1 476
79  0 0 0 0 0 0 1 0 0 0  1 477
7  0 0 1 0 0 0 0 0 0 0  1 478
36  0 0 0 0 0 0 0 0 1 0  1 479
36  0 0 0 0 0 0 0 0 0 1  1 480
9  0 0 0 0 0 1 0 0 0 0  1 481
92  0 0 0 0 1 0 0 0 0 0  1 902
37  0 0 0 0 0 0 0 0 1 0  1 483
72  0 0 0 0 0 0 0 1 0 0  1 484
52  0 0 1 0 0 0 0 0 0 0  1 485
31  0 0 0 0 1 0 0 0 0 0  1 486
82  0 1 0 0 0 0 0 0 0 0  1 487
54  0 0 0 0 0 0 0 0 0 1  1 488
7  0 0 0 0 0 1 0 0 0 0  1 489
82  0 0 0 0 0 0 1 0 0 0  1 490
73  0 0 0 1 0 0 0 0 0 0  1 491
49  1 0 0 0 0 0 0 0 0 0  1 902
73  0 1 0 0 0 0 0 0 0 0  1 493
83  0 0 0 1 0 0 0 0 0 0  1 494
45  0 0 0 0 0 0 0 1 0 0  1 495
76  0 0 1 0 0 0 0 0 0 0  1 496
43  0 0 0 0 1 0 0 0 0 0  1 497
29  0 0 0 0 0 0 0 0 0 1  1 498
35  1 0 0 0 0 0 0 0 0 0  1 499
92  0 0 0 0 0 1 0 0 0 0  1 500
39  0 0 0 0 0 0 0 0 1 0  1 501
28  0 0 0 0 0 0 1 0 0 0  1 902
58  0 0 1 0 0 0 0 0 0 0  1 503
26  1 0 0 0 0 0 0 0 0 0  1 504
48  0 1 0 0 0 0 0 0 0 0  1 505
52  0 0 0 0 0 0 0 0 1 0  1 506
34  0 0 0 0 0 0 0 1 0 0  1 507
96  0 0 0 0 0 0 1 0 0 0  1 508
70  0 0 0 0 0 1 0 0 0 0  1 509
98  0 0 0 0 1 0 0 0 0 0  1 510
80  0 0 0 1 0 0 0 0 0 0  1 511
94  0 0 0 0 0 0 0 0 0 1  1 902
70  0 1 0 0 0 0 0 0 0 0  1 513
23  0 0 0 0 0 0 0 0 1 0  1 514
26  0 0 0 0 0 1 0 0 0 0  1 515
14  0 0 0 0 1 0 0 0 0 0  1 516
90  0 0 0 0 0 0 1 0 0 0  1 517
93  0 0 1 0 0 0 0 0 0 0  1 518
21  0 0 0 1 0 0 0 0 0 0  1 519
42  1 0 0 0 0 0 0 0 0 0  1 520
18  0 0 0 0 0 0 0 1 0 0  1 521
36  0 0 0 0 0 0 0 0 0 1  1 902
28  0 0 0 0 1 0 0 0 0 0  1 523
76  0 0 0 0 0 0 1 0 0 0  1 524
25  0 0 0 0 0 0 0 1 0 0  1 525
17  1 0 0 0 0 0 0 0 0 0  1 526
84  0 1 0 0 0 0 0 0 0 0  1 527
67  0 0 1 0 0 0 0 0 0 0  1 528
87  0 0 0 0 0 0 0 0 1 0  1 529
43  0 0 0 1 0 0 0 0 0 0  1 530
88  0 0 0 0 0 0 0 0 0 1  1 531
84  0 0 0 0 0 1 0 0 0 0  1 902
30  0 0 0 0 0 0 0 1 0 0  1 533
91  0 0 0 1 0 0 0 0 0 0  1 534
52  0 0 0 0 0 0 0 0 1 0  1 535
80  0 0 0 0 1 0 0 0 0 0  1 536
21  1 0 0 0 0 0 0 0 0 0  1 537
8  0 0 0 0 0 1 0 0 0 0  1 538
37  0 0 0 0 0 0 0 0 0 1  1 539
15  0 0 1 0 0 0 0 0 0 0  1 540
12  0 0 0 0 0 0 1 0 0 0  1 541
92  0 1 0 0 0 0 0 0 0 0  1 902
28  0 1 0 0 0 0 0 0 0 0  1 543
7  0 0 0 0 1 0 0 0 0 0  1 544
46  0 0 0 0 0 0 0 1 0 0  1 545
92  0 0 0 0 0 0 1 0 0 0  1 546
77  0 0 1 0 0 0 0 0 0 0  1 547
15  0 0 0 1 0 0 0 0 0 0  1 548
69  0 0 0 0 0 0 0 0 0 1  1 549
54  0 0 0 0 0 0 0 0 1 0  1 550
47  1 0 0 0 0 0 0 0 0 0  1 551
39  0 0 0 0 0 1 0 0 0 0  1 902
50  0 0 0 0 0 0 0 0 0 1  1 553
44  0 0 0 0 0 1 0 0 0 0  1 554
64  0 0 1 0 0 0 0 0 0 0  1 555
38  0 0 0 0 0 0 0 0 1 0  1 556
93  0 0 0 0 1 0 0 0 0 0  1 557
33  0 0 0 0 0 0 1 0 0 0  1 558
75  0 0 0 0 0 0 0 1 0 0  1 559
41  1 0 0 0 0 0 0 0 0 0  1 560
24  0 1 0 0 0 0 0 0 0 0  1 561
5  0 0 0 1 0 0 0 0 0 0  1 902
94  0 0 0 0 0 0 0 1 0 0  1 563
17  1 0 0 0 0 0 0 0 0 0  1 564
87  0 0 0 0 0 0 1 0 0 0  1 565
21  0 0 1 0 0 0 0 0 0 0  1 566
92  0 0 0 0 0 0 0 0 1 0  1 567
28  0 0 0 0 0 0 0 0 0 1  1 568
61  0 1 0 0 0 0 0 0 0 0  1 569
63  0 0 0 0 1 0 0 0 0 0  1 570
34  0 0 0 1 0 0 0 0 0 0  1 571
77  0 0 0 0 0 1 0 0 0 0  1 902
72  0 0 0 1 0 0 0 0 0 0  1 573
98  0 0 0 0 0 0 0 0 1 0  1 574
5  0 0 0 0 0 0 0 0 0 1  1 575
28  0 0 0 0 1 0 0 0 0 0  1 576
9  0 0 1 0 0 0 0 0 0 0  1 577
95  0 0 0 0 0 1 0 0 0 0  1 578
64  0 0 0 0 0 0 1 0 0 0  1 579
43  0 1 0 0 0 0 0 0 0 0  1 580
50  1 0 0 0 0 0 0 0 0 0  1 581
96  0 0 0 0 0 0 0 1 0 0  1 902
85  1 0 0 0 0 0 0 0 0 0  1 583
85  0 0 1 0 0 0 0 0 0 0  1 584
39  0 0 0 0 0 0 0 0 1 0  1 585
98  0 1 0 0 0 0 0 0 0 0  1 586
24  0 0 0 0 0 0 0 1 0 0  1 587
71  0 0 0 1 0 0 0 0 0 0  1 588
60  0 0 0 0 0 1 0 0 0 0  1 589
55  0 0 0 0 1 0 0 0 0 0  1 590
22  0 0 0 0 0 0 0 0 0 1  1 591
35  0 0 0 0 0 0 1 0 0 0  1 902
78  0 0 0 1 0 0 0 0 0 0  1 593
49  0 0 0 0 0 0 1 0 0 0  1 594
46  0 0 1 0 0 0 0 0 0 0  1 595
11  0 1 0 0 0 0 0 0 0 0  1 596
90  1 0 0 0 0 0 0 0 0 0  1 597
20  0 0 0 0 0 1 0 0 0 0  1 598
34  0 0 0 0 0 0 0 0 0 1  1 599
6  0 0 0 0 0 0 0 1 0 0  1 600
70  0 0 0 0 1 0 0 0 0 0  1 601
74  0 0 0 0 0 0 0 0 1 0  1 902
51  0 0 1 0 0 0 0 0 0 0  1 603
59  0 0 0 0 0 0 0 1 0 0  1 604
35  0 1 0 0 0 0 0 0 0 0  1 605
73  0 0 0 0 0 1 0 0 0 0  1 606
65  0 0 0 0 0 0 0 0 0 1  1 607
27  1 0 0 0 0 0 0 0 0 0  1 608
13  0 0 0 0 0 0 1 0 0 0  1 609
81  0 0 0 1 0 0 0 0 0 0  1 610
32  0 0 0 0 0 0 0 0 1 0  1 611
74  0 0 0 0 1 0 0 0 0 0  1 902
64  0 0 0 0 1 0 0 0 0 0  1 613
33  0 0 0 0 0 0 0 1 0 0  1 614
75  0 0 0 0 0 1 0 0 0 0  1 615
33  0 0 1 0 0 0 0 0 0 0  1 616
10  0 0 0 0 0 0 0 0 1 0  1 617
28  1 0 0 0 0 0 0 0 0 0  1 618
38  0 0 0 1 0 0 0 0 0 0  1 619
53  0 0 0 0 0 0 1 0 0 0  1 620
49  0 0 0 0 0 0 0 0 0 1  1 621
55  0 1 0 0 0 0 0 0 0 0  1 902
83  0 0 0 0 0 0 1 0 0 0  1 623
23  0 1 0 0 0 0 0 0 0 0  1 624
72  0 0 1 0 0 0 0 0 0 0  1 625
7  0 0 0 1 0 0 0 0 0 0  1 626
72  0 0 0 0 0 0 0 0 0 1  1 627
6  1 0 0 0 0 0 0 0 0 0  1 628
39  0 0 0 0 1 0 0 0 0 0  1 629
52  0 0 0 0 0 1 0 0 0 0  1 630
90  0 0 0 0 0 0 0 0 1 0  1 631
21  0 0 0 0 0 0 0 1 0 0  1 902
82  0 0 0 1 0 0 0 0 0 0  1 633
23  0 1 0 0 0 0 0 0 0 0  1 634
93  0 0 1 0 0 0 0 0 0 0  1 635
78  0 0 0 0 1 0 0 0 0 0  1 636
88  0 0 0 0 0 0 1 0 0 0  1 637
53  0 0 0 0 0 0 0 1 0 0  1 638
28  0 0 0 0 0 0 0 0 0 1  1 639
65  0 0 0 0 0 0 0 0 1 0  1 640
21  0 0 0 0 0 1 0 0 0 0  1 641
61  1 0 0 0 0 0 0 0 0 0  1 902
41  0 0 0 0 1 0 0 0 0 0  1 643
12  0 0 0 0 0 0 1 0 0 0  1 644
12  0 0 0 0 0 0 0 0 0 1  1 645
77  0 0 0 1 0 0 0 0 0 0  1 646
70  0 1 0 0 0 0 0 0 0 0  1 647
24  0 0 0 0 0 0 0 1 0 0  1 648
81  1 0 0 0 0 0 0 0 0 0  1 649
73  0 0 0 0 0 1 0 0 0 0  1 650
62  0 0 1 0 0 0 0 0 0 0  1 651
6  0 0 0 0 0 0 0 0 1 0  1 902
98  0 0 0 0 1 0 0 0 0 0  1 653
28  0 0 0 1 0 0 0 0 0 0  1 654
42  0 0 0 0 0 0 1 0 0 0  1 655
72  0 0 0 0 0 0 0 0 0 1  1 656
15  1 0 0 0 0 0 0 0 0 0  1 657
15  0 0 0 0 0 0 0 0 1 0  1 658
94  0 0 0 0 0 1 0 0 0 0  1 659
33  0 0 1 0 0 0 0 0 0 0  1 660
51  0 1 0 0 0 0 0 0 0 0  1 661
99  0 0 0 0 0 0 0 1 0 0  1 902
32  1 0 0 0 0 0 0 0 0 0  1 663
22  0 0 0 0 0 0 0 0 1 0  1 664
96  0 0 0 0 0 0 0 0 0 1  1 665
15  0 0 0 0 1 0 0 0 0 0  1 666
78  0 0 0 0 0 0 1 0 0 0  1 667
31  0 0 0 1 0 0 0 0 0 0  1 668
7  0 0 0 0 0 1 0 0 0 0  1 669
94  0 1 0 0 0 0 0 0 0 0  1 670
23  0 0 1 0 0 0 0 0 0 0  1 671
86  0 0 0 0 0 0 0 1 0 0  1 902
93  0 0 0 0 0 0 0 1 0 0  1 673
97  0 0 1 0 0 0 0 0 0 0  1 674
43  0 0 0 1 0 0 0 0 0 0  1 675
73  0 0 0 0 0 1 0 0 0 0  1 676
24  1 0 0 0 0 0 0 0 0 0  1 677
68  0 0 0 0 0 0 0 0 1 0  1 678
88  0 0 0 0 0 0 0 0 0 1  1 679
42  0 1 0 0 0 0 0 0 0 0  1 680
35  0 0 0 0 1 0 0 0 0 0  1 681
72  0 0 0 0 0 0 1 0 0 0  1 902
14  0 0 1 0 0 0 0 0 0 0  1 683
44  1 0 0 0 0 0 0 0 0 0  1 684
13  0 0 0 0 0 0 0 0 1 0  1 685
67  0 0 0 0 0 1 0 0 0 0  1 686
63  0 1 0 0 0 0 0 0 0 0  1 687
49  0 0 0 1 0 0 0 0 0 0  1 688
5  0 0 0 0 0 0 0 1 0 0  1 689
17  0 0 0 0 1 0 0 0 0 0  1 690
85  0 0 0 0 0 0 1 0 0 0  1 691
66  0 0 0 0 0 0 0 0 0 1  1 902
82  0 0 0 0 0 0 0 1 0 0  1 693
15  0 0 0 0 0 0 0 0 0 1  1 694
72  0 0 0 1 0 0 0 0 0 0  1 695
26  0 0 0 0 1 0 0 0 0 0  1 696
8  1 0 0 0 0 0 0 0 0 0  1 697
68  0 1 0 0 0 0 0 0 0 0  1 698
21  0 0 0 0 0 0 1 0 0 0  1 699
45  0 0 0 0 0 0 0 0 1 0  1 700
99  0 0 1 0 0 0 0 0 0 0  1 701
27  0 0 0 0 0 1 0 0 0 0  1 902
93  0 0 0 0 1 0 0 0 0 0  1 703
23  0 0 0 0 0 0 1 0 0 0  1 704
51  1 0 0 0 0 0 0 0 0 0  1 705
54  0 0 0 0 0 0 0 0 1 0  1 706
49  0 0 0 1 0 0 0 0 0 0  1 707
96  0 1 0 0 0 0 0 0 0 0  1 708
56  0 0 1 0 0 0 0 0 0 0  1 709
36  0 0 0 0 0 0 0 0 0 1  1 710
53  0 0 0 0 0 1 0 0 0 0  1 711
52  0 0 0 0 0 0 0 1 0 0  1 902
60  0 0 0 0 0 0 0 0 1 0  1 713
14  1 0 0 0 0 0 0 0 0 0  1 714
70  0 0 0 0 1 0 0 0 0 0  1 715
55  0 0 0 0 0 0 0 0 0 1  1 716
23  0 1 0 0 0 0 0 0 0 0  1 717
83  0 0 0 0 0 1 0 0 0 0  1 718
38  0 0 0 1 0 0 0 0 0 0  1 719
24  0 0 1 0 0 0 0 0 0 0  1 720
37  0 0 0 0 0 0 0 1 0 0  1 721
48  0 0 0 0 0 0 1 0 0 0  1 902
62  1 0 0 0 0 0 0 0 0 0  1 723
15  0 0 0 0 0 0 0 1 0 0  1 724
69  0 0 0 0 0 0 0 0 1 0  1 725
23  0 0 0 0 0 0 0 0 0 1  1 726
82  0 1 0 0 0 0 0 0 0 0  1 727
26  0 0 0 0 0 0 1 0 0 0  1 728
45  0 0 0 0 1 0 0 0 0 0  1 729
33  0 0 0 0 0 1 0 0 0 0  1 730
12  0 0 0 1 0 0 0 0 0 0  1 731
37  0 0 1 0 0 0 0 0 0 0  1 902
72  0 0 0 0 0 0 1 0 0 0  1 733
9  0 1 0 0 0 0 0 0 0 0  1 734
15  0 0 0 0 0 0 0 1 0 0  1 735
28  0 0 0 0 0 1 0 0 0 0  1 736
92  0 0 0 0 0 0 0 0 1 0  1 737
12  0 0 0 0 0 0 0 0 0 1  1 738
59  1 0 0 0 0 0 0 0 0 0  1 739
64  0 0 0 1 0 0 0 0 0 0  1 740
87  0 0 0 0 1 0 0 0 0 0  1 741
73  0 0 1 0 0 0 0 0 0 0  1 902
50  1 0 0 0 0 0 0 0 0 0  1 743
14  0 1 0 0 0 0 0 0 0 0  1 744
90  0 0 0 0 0 0 0 1 0 0  1 745
46  0 0 0 0 0 1 0 0 0 0  1 746
71  0 0 0 1 0 0 0 0 0 0  1 747
48  0 0 0 0 1 0 0 0 0 0  1 748
80  0 0 1 0 0 0 0 0 0 0  1 749
61  0 0 0 0 0 0 0 0 0 1  1 750
24  0 0 0 0 0 0 0 0 1 0  1 751
44  0 0 0 0 0 0 1 0 0 0  1 902
22  1 0 0 0 0 0 0 0 0 0  1 753
94  0 0 0 0 0 0 0 0 0 1  1 754
16  0 0 0 0 0 1 0 0 0 0  1 755
73  0 0 0 1 0 0 0 0 0 0  1 756
54  0 0 1 0 0 0 0 0 0 0  1 757
54  0 0 0 0 0 0 0 0 1 0  1 758
46  0 0 0 0 1 0 0 0 0 0  1 759
97  0 1 0 0 0 0 0 0 0 0  1 760
61  0 0 0 0 0 0 1 0 0 0  1 761
75  0 0 0 0 0 0 0 1 0 0  1 902
55  0 0 0 0 0 0 0 0 0 1  1 763
67  0 0 0 1 0 0 0 0 0 0  1 764
77  0 0 0 0 0 0 1 0 0 0  1 765
30  0 0 0 0 1 0 0 0 0 0  1 766
6  0 0 0 0 0 0 0 1 0 0  1 767
32  0 1 0 0 0 0 0 0 0 0  1 768
47  0 0 0 0 0 0 0 0 1 0  1 769
93  0 0 0 0 0 1 0 0 0 0  1 770
6  0 0 1 0 0 0 0 0 0 0  1 771
40  1 0 0 0 0 0 0 0 0 0  1 902
30  0 1 0 0 0 0 0 0 0 0  1 773
98  0 0 0 1 0 0 0 0 0 0  1 774
79  0 0 0 0 0 0 0 1 0 0  1 775
22  1 0 0 0 0 0 0 0 0 0  1 776
79  0 0 0 0 0 0 1 0 0 0  1 777
7  0 0 1 0 0 0 0 0 0 0  1 778
36  0 0 0 0 0 0 0 0 1 0  1 779
36  0 0 0 0 0 0 0 0 0 1  1 780
9  0 0 0 0 0 1 0 0 0 0  1 781
92  0 0 0 0 1 0 0 0 0 0  1 902
37  0 0 0 0 0 0 0 0 1 0  1 783
72  0 0 0 0 0 0 0 1 0 0  1 784
52  0 0 1 0 0 0 0 0 0 0  1 785
31  0 0 0 0 1 0 0 0 0 0  1 786
82  0 1 0 0 0 0 0 0 0 0  1 787
54  0 0 0 0 0 0 0 0 0 1  1 788
7  0 0 0 0 0 1 0 0 0 0  1 789
82  0 0 0 0 0 0 1 0 0 0  1 790
73  0 0 0 1 0 0 0 0 0 0  1 791
49  1 0 0 0 0 0 0 0 0 0  1 902
73  0 1 0 0 0 0 0 0 0 0  1 793
83  0 0 0 1 0 0 0 0 0 0  1 794
45  0 0 0 0 0 0 0 1 0 0  1 795
76  0 0 1 0 0 0 0 0 0 0  1 796
43  0 0 0 0 1 0 0 0 0 0  1 797
29  0 0 0 0 0 0 0 0 0 1  1 798
35  1 0 0 0 0 0 0 0 0 0  1 799
92  0 0 0 0 0 1 0 0 0 0  1 800
39  0 0 0 0 0 0 0 0 1 0  1 801
28  0 0 0 0 0 0 1 0 0 0  1 902
58  0 0 1 0 0 0 0 0 0 0  1 803
26  1 0 0 0 0 0 0 0 0 0  1 804
48  0 1 0 0 0 0 0 0 0 0  1 805
52  0 0 0 0 0 0 0 0 1 0  1 806
34  0 0 0 0 0 0 0 1 0 0  1 807
96  0 0 0 0 0 0 1 0 0 0  1 808
70  0 0 0 0 0 1 0 0 0 0  1 809
98  0 0 0 0 1 0 0 0 0 0  1 810
80  0 0 0 1 0 0 0 0 0 0  1 811
94  0 0 0 0 0 0 0 0 0 1  1 902
70  0 1 0 0 0 0 0 0 0 0  1 813
23  0 0 0 0 0 0 0 0 1 0  1 814
26  0 0 0 0 0 1 0 0 0 0  1 815
14  0 0 0 0 1 0 0 0 0 0  1 816
90  0 0 0 0 0 0 1 0 0 0  1 817
93  0 0 1 0 0 0 0 0 0 0  1 818
21  0 0 0 1 0 0 0 0 0 0  1 819
42  1 0 0 0 0 0 0 0 0 0  1 820
18  0 0 0 0 0 0 0 1 0 0  1 821
36  0 0 0 0 0 0 0 0 0 1  1 902
28  0 0 0 0 1 0 0 0 0 0  1 823
76  0 0 0 0 0 0 1 0 0 0  1 824
25  0 0 0 0 0 0 0 1 0 0  1 825
17  1 0 0 0 0 0 0 0 0 0  1 826
84  0 1 0 0 0 0 0 0 0 0  1 827
67  0 0 1 0 0 0 0 0 0 0  1 828
87  0 0 0 0 0 0 0 0 1 0  1 829
43  0 0 0 1 0 0 0 0 0 0  1 830
88  0 0 0 0 0 0 0 0 0 1  1 831
84  0 0 0 0 0 1 0 0 0 0  1 902
30  0 0 0 0 0 0 0 1 0 0  1 833
91  0 0 0 1 0 0 0 0 0 0  1 834
52  0 0 0 0 0 0 0 0 1 0  1 835
80  0 0 0 0 1 0 0 0 0 0  1 836
21  1 0 0 0 0 0 0 0 0 0  1 837
8  0 0 0 0 0 1 0 0 0 0  1 838
37  0 0 0 0 0 0 0 0 0 1  1 839
15  0 0 1 0 0 0 0 0 0 0  1 840
12  0 0 0 0 0 0 1 0 0 0  1 841
92  0 1 0 0 0 0 0 0 0 0  1 902
28  0 1 0 0 0 0 0 0 0 0  1 843
7  0 0 0 0 1 0 0 0 0 0  1 844
46  0 0 0 0 0 0 0 1 0 0  1 845
92  0 0 0 0 0 0 1 0 0 0  1 846
77  0 0 1 0 0 0 0 0 0 0  1 847
15  0 0 0 1 0 0 0 0 0 0  1 848
69  0 0 0 0 0 0 0 0 0 1  1 849
54  0 0 0 0 0 0 0 0 1 0  1 850
47  1 0 0 0 0 0 0 0 0 0  1 851
39  0 0 0 0 0 1 0 0 0 0  1 902
50  0 0 0 0 0 0 0 0 0 1  1 853
44  0 0 0 0 0 1 0 0 0 0  1 854
64  0 0 1 0 0 0 0 0 0 0  1 855
38  0 0 0 0 0 0 0 0 1 0  1 856
93  0 0 0 0 1 0 0 0 0 0  1 857
33  0 0 0 0 0 0 1 0 0 0  1 858
75  0 0 0 0 0 0 0 1 0 0  1 859
41  1 0 0 0 0 0 0 0 0 0  1 860
24  0 1 0 0 0 0 0 0 0 0  1 861
5  0 0 0 1 0 0 0 0 0 0  1 902
94  0 0 0 0 0 0 0 1 0 0  1 863
17  1 0 0 0 0 0 0 0 0 0  1 864
87  0 0 0 0 0 0 1 0 0 0  1 865
21  0 0 1 0 0 0 0 0 0 0  1 866
92  0 0 0 0 0 0 0 0 1 0  1 867
28  0 0 0 0 0 0 0 0 0 1  1 868
61  0 1 0 0 0 0 0 0 0 0  1 869
63  0 0 0 0 1 0 0 0 0 0  1 870
34  0 0 0 1 0 0 0 0 0 0  1 871
77  0 0 0 0 0 1 0 0 0 0  1 902
72  0 0 0 1 0 0 0 0 0 0  1 873
98  0 0 0 0 0 0 0 0 1 0  1 874
5  0 0 0 0 0 0 0 0 0 1  1 875
28  0 0 0 0 1 0 0 0 0 0  1 876
9  0 0 1 0 0 0 0 0 0 0  1 877
95  0 0 0 0 0 1 0 0 0 0  1 878
64  0 0 0 0 0 0 1 0 0 0  1 879
43  0 1 0 0 0 0 0 0 0 0  1 880
50  1 0 0 0 0 0 0 0 0 0  1 881
96  0 0 0 0 0 0 0 1 0 0  1 902
85  1 0 0 0 0 0 0 0 0 0  1 883
85  0 0 1 0 0 0 0 0 0 0  1 884
39  0 0 0 0 0 0 0 0 1 0  1 885
98  0 1 0 0 0 0 0 0 0 0  1 886
24  0 0 0 0 0 0 0 1 0 0  1 887
71  0 0 0 1 0 0 0 0 0 0  1 888
60  0 0 0 0 0 1 0 0 0 0  1 889
55  0 0 0 0 1 0 0 0 0 0  1 890
22  0 0 0 0 0 0 0 0 0 1  1 891
35  0 0 0 0 0 0 1 0 0 0  1 902
78  0 0 0 1 0 0 0 0 0 0  1 893
49  0 0 0 0 0 0 1 0 0 0  1 894
46  0 0 1 0 0 0 0 0 0 0  1 895
11  0 1 0 0 0 0 0 0 0 0  1 896
90  1 0 0 0 0 0 0 0 0 0  1 897
20  0 0 0 0 0 1 0 0 0 0  1 898
34  0 0 0 0 0 0 0 0 0 1  1 899
6  0 0 0 0 0 0 0 1 0 0  1 900
70  0 0 0 0 1 0 0 0 0 0  1 901
74  0 0 0 0 0 0 0 0 1 0  1 902
0  0 0 0 0 0 0 0 0 0 0  0
